p cnf 240 3590
1 2 3 0
4 5 6 0
7 8 9 0
10 11 12 0
13 14 15 0
16 17 18 0
19 20 21 0
22 23 24 0
25 26 27 0
28 29 30 0
31 32 33 0
34 35 36 0
37 38 39 0
40 41 42 0
43 44 45 0
46 47 48 0
49 50 51 0
52 53 54 0
55 56 57 0
58 59 60 0
61 62 63 0
64 65 66 0
67 68 69 0
70 71 72 0
73 74 75 0
76 77 78 0
79 80 81 0
82 83 84 0
85 86 87 0
88 89 90 0
91 92 93 0
94 95 96 0
97 98 99 0
100 101 102 0
103 104 105 0
106 107 108 0
109 110 111 0
112 113 114 0
115 116 117 0
118 119 120 0
121 122 123 0
124 125 126 0
127 128 129 0
130 131 132 0
133 134 135 0
136 137 138 0
139 140 141 0
142 143 144 0
145 146 147 0
148 149 150 0
151 152 153 0
154 155 156 0
157 158 159 0
160 161 162 0
163 164 165 0
166 167 168 0
169 170 171 0
172 173 174 0
175 176 177 0
178 179 180 0
181 182 183 0
184 185 186 0
187 188 189 0
190 191 192 0
193 194 195 0
196 197 198 0
199 200 201 0
202 203 204 0
205 206 207 0
208 209 210 0
211 212 213 0
214 215 216 0
217 218 219 0
220 221 222 0
223 224 225 0
226 227 228 0
229 230 231 0
232 233 234 0
235 236 237 0
238 239 240 0
-1 -2 0
-1 -3 0
-2 -3 0
-4 -5 0
-4 -6 0
-5 -6 0
-7 -8 0
-7 -9 0
-8 -9 0
-10 -11 0
-10 -12 0
-11 -12 0
-13 -14 0
-13 -15 0
-14 -15 0
-16 -17 0
-16 -18 0
-17 -18 0
-19 -20 0
-19 -21 0
-20 -21 0
-22 -23 0
-22 -24 0
-23 -24 0
-25 -26 0
-25 -27 0
-26 -27 0
-28 -29 0
-28 -30 0
-29 -30 0
-31 -32 0
-31 -33 0
-32 -33 0
-34 -35 0
-34 -36 0
-35 -36 0
-37 -38 0
-37 -39 0
-38 -39 0
-40 -41 0
-40 -42 0
-41 -42 0
-43 -44 0
-43 -45 0
-44 -45 0
-46 -47 0
-46 -48 0
-47 -48 0
-49 -50 0
-49 -51 0
-50 -51 0
-52 -53 0
-52 -54 0
-53 -54 0
-55 -56 0
-55 -57 0
-56 -57 0
-58 -59 0
-58 -60 0
-59 -60 0
-61 -62 0
-61 -63 0
-62 -63 0
-64 -65 0
-64 -66 0
-65 -66 0
-67 -68 0
-67 -69 0
-68 -69 0
-70 -71 0
-70 -72 0
-71 -72 0
-73 -74 0
-73 -75 0
-74 -75 0
-76 -77 0
-76 -78 0
-77 -78 0
-79 -80 0
-79 -81 0
-80 -81 0
-82 -83 0
-82 -84 0
-83 -84 0
-85 -86 0
-85 -87 0
-86 -87 0
-88 -89 0
-88 -90 0
-89 -90 0
-91 -92 0
-91 -93 0
-92 -93 0
-94 -95 0
-94 -96 0
-95 -96 0
-97 -98 0
-97 -99 0
-98 -99 0
-100 -101 0
-100 -102 0
-101 -102 0
-103 -104 0
-103 -105 0
-104 -105 0
-106 -107 0
-106 -108 0
-107 -108 0
-109 -110 0
-109 -111 0
-110 -111 0
-112 -113 0
-112 -114 0
-113 -114 0
-115 -116 0
-115 -117 0
-116 -117 0
-118 -119 0
-118 -120 0
-119 -120 0
-121 -122 0
-121 -123 0
-122 -123 0
-124 -125 0
-124 -126 0
-125 -126 0
-127 -128 0
-127 -129 0
-128 -129 0
-130 -131 0
-130 -132 0
-131 -132 0
-133 -134 0
-133 -135 0
-134 -135 0
-136 -137 0
-136 -138 0
-137 -138 0
-139 -140 0
-139 -141 0
-140 -141 0
-142 -143 0
-142 -144 0
-143 -144 0
-145 -146 0
-145 -147 0
-146 -147 0
-148 -149 0
-148 -150 0
-149 -150 0
-151 -152 0
-151 -153 0
-152 -153 0
-154 -155 0
-154 -156 0
-155 -156 0
-157 -158 0
-157 -159 0
-158 -159 0
-160 -161 0
-160 -162 0
-161 -162 0
-163 -164 0
-163 -165 0
-164 -165 0
-166 -167 0
-166 -168 0
-167 -168 0
-169 -170 0
-169 -171 0
-170 -171 0
-172 -173 0
-172 -174 0
-173 -174 0
-175 -176 0
-175 -177 0
-176 -177 0
-178 -179 0
-178 -180 0
-179 -180 0
-181 -182 0
-181 -183 0
-182 -183 0
-184 -185 0
-184 -186 0
-185 -186 0
-187 -188 0
-187 -189 0
-188 -189 0
-190 -191 0
-190 -192 0
-191 -192 0
-193 -194 0
-193 -195 0
-194 -195 0
-196 -197 0
-196 -198 0
-197 -198 0
-199 -200 0
-199 -201 0
-200 -201 0
-202 -203 0
-202 -204 0
-203 -204 0
-205 -206 0
-205 -207 0
-206 -207 0
-208 -209 0
-208 -210 0
-209 -210 0
-211 -212 0
-211 -213 0
-212 -213 0
-214 -215 0
-214 -216 0
-215 -216 0
-217 -218 0
-217 -219 0
-218 -219 0
-220 -221 0
-220 -222 0
-221 -222 0
-223 -224 0
-223 -225 0
-224 -225 0
-226 -227 0
-226 -228 0
-227 -228 0
-229 -230 0
-229 -231 0
-230 -231 0
-232 -233 0
-232 -234 0
-233 -234 0
-235 -236 0
-235 -237 0
-236 -237 0
-238 -239 0
-238 -240 0
-239 -240 0
-1 -13 0
-1 -19 0
-1 -28 0
-1 -34 0
-1 -40 0
-1 -115 0
-1 -118 0
-1 -142 0
-1 -151 0
-1 -190 0
-1 -211 0
-1 -214 0
-1 -223 0
-1 -232 0
-4 -7 0
-4 -25 0
-4 -46 0
-4 -55 0
-4 -64 0
-4 -91 0
-4 -94 0
-4 -115 0
-4 -133 0
-4 -184 0
-4 -193 0
-4 -208 0
-4 -220 0
-4 -232 0
-7 -4 0
-7 -28 0
-7 -64 0
-7 -67 0
-7 -91 0
-7 -112 0
-7 -121 0
-7 -127 0
-7 -130 0
-7 -136 0
-7 -151 0
-7 -199 0
-7 -208 0
-7 -226 0
-7 -229 0
-10 -19 0
-10 -34 0
-10 -40 0
-10 -46 0
-10 -97 0
-10 -121 0
-10 -130 0
-10 -136 0
-10 -139 0
-10 -142 0
-10 -145 0
-10 -163 0
-10 -166 0
-10 -211 0
-10 -214 0
-13 -1 0
-13 -16 0
-13 -28 0
-13 -58 0
-13 -61 0
-13 -73 0
-13 -82 0
-13 -94 0
-13 -103 0
-13 -109 0
-13 -118 0
-13 -121 0
-13 -172 0
-13 -202 0
-16 -13 0
-16 -64 0
-16 -67 0
-16 -73 0
-16 -85 0
-16 -88 0
-16 -133 0
-16 -145 0
-16 -148 0
-16 -160 0
-16 -166 0
-16 -223 0
-16 -232 0
-16 -235 0
-16 -238 0
-19 -1 0
-19 -10 0
-19 -25 0
-19 -28 0
-19 -67 0
-19 -106 0
-19 -130 0
-19 -139 0
-19 -145 0
-19 -172 0
-19 -175 0
-19 -193 0
-19 -232 0
-19 -238 0
-22 -31 0
-22 -37 0
-22 -40 0
-22 -58 0
-22 -79 0
-22 -118 0
-22 -169 0
-22 -196 0
-22 -199 0
-22 -214 0
-22 -220 0
-22 -238 0
-25 -4 0
-25 -19 0
-25 -28 0
-25 -31 0
-25 -97 0
-25 -145 0
-25 -154 0
-25 -157 0
-25 -172 0
-25 -196 0
-25 -205 0
-25 -217 0
-25 -232 0
-28 -1 0
-28 -7 0
-28 -13 0
-28 -19 0
-28 -25 0
-28 -31 0
-28 -34 0
-28 -46 0
-28 -61 0
-28 -103 0
-28 -112 0
-28 -115 0
-28 -163 0
-28 -205 0
-31 -22 0
-31 -25 0
-31 -28 0
-31 -43 0
-31 -61 0
-31 -67 0
-31 -70 0
-31 -91 0
-31 -130 0
-31 -199 0
-31 -208 0
-31 -226 0
-31 -232 0
-34 -1 0
-34 -10 0
-34 -28 0
-34 -67 0
-34 -73 0
-34 -85 0
-34 -88 0
-34 -91 0
-34 -124 0
-34 -145 0
-34 -172 0
-34 -175 0
-34 -223 0
-34 -232 0
-37 -22 0
-37 -49 0
-37 -58 0
-37 -73 0
-37 -82 0
-37 -97 0
-37 -121 0
-37 -160 0
-37 -193 0
-37 -196 0
-37 -220 0
-37 -223 0
-37 -226 0
-37 -235 0
-40 -1 0
-40 -10 0
-40 -22 0
-40 -64 0
-40 -70 0
-40 -97 0
-40 -142 0
-40 -190 0
-40 -226 0
-40 -232 0
-40 -235 0
-43 -31 0
-43 -85 0
-43 -115 0
-43 -130 0
-43 -133 0
-43 -148 0
-43 -187 0
-43 -196 0
-43 -199 0
-43 -208 0
-43 -211 0
-43 -214 0
-43 -232 0
-43 -235 0
-46 -4 0
-46 -10 0
-46 -28 0
-46 -97 0
-46 -106 0
-46 -115 0
-46 -118 0
-46 -154 0
-46 -172 0
-46 -175 0
-46 -196 0
-46 -199 0
-46 -205 0
-46 -214 0
-46 -223 0
-49 -37 0
-49 -73 0
-49 -112 0
-49 -121 0
-49 -130 0
-49 -136 0
-49 -145 0
-49 -157 0
-49 -163 0
-49 -181 0
-49 -184 0
-49 -199 0
-49 -217 0
-49 -226 0
-49 -232 0
-52 -112 0
-52 -130 0
-52 -136 0
-52 -139 0
-52 -142 0
-52 -148 0
-52 -163 0
-52 -178 0
-52 -193 0
-52 -202 0
-52 -205 0
-52 -214 0
-55 -4 0
-55 -64 0
-55 -97 0
-55 -106 0
-55 -109 0
-55 -118 0
-55 -160 0
-55 -163 0
-55 -175 0
-55 -178 0
-55 -187 0
-55 -199 0
-55 -229 0
-55 -235 0
-58 -13 0
-58 -22 0
-58 -37 0
-58 -70 0
-58 -94 0
-58 -127 0
-58 -130 0
-58 -148 0
-58 -169 0
-58 -175 0
-58 -190 0
-58 -199 0
-58 -202 0
-58 -208 0
-61 -13 0
-61 -28 0
-61 -31 0
-61 -67 0
-61 -85 0
-61 -88 0
-61 -91 0
-61 -103 0
-61 -136 0
-61 -154 0
-61 -187 0
-61 -208 0
-61 -214 0
-61 -217 0
-64 -4 0
-64 -7 0
-64 -16 0
-64 -40 0
-64 -55 0
-64 -70 0
-64 -130 0
-64 -145 0
-64 -163 0
-64 -166 0
-64 -187 0
-64 -190 0
-64 -208 0
-67 -7 0
-67 -16 0
-67 -19 0
-67 -31 0
-67 -34 0
-67 -61 0
-67 -112 0
-67 -124 0
-67 -133 0
-67 -145 0
-67 -172 0
-67 -226 0
-67 -229 0
-67 -232 0
-70 -31 0
-70 -40 0
-70 -58 0
-70 -64 0
-70 -79 0
-70 -97 0
-70 -106 0
-70 -136 0
-70 -142 0
-70 -151 0
-70 -163 0
-70 -196 0
-70 -199 0
-70 -202 0
-70 -238 0
-73 -13 0
-73 -16 0
-73 -34 0
-73 -37 0
-73 -49 0
-73 -88 0
-73 -112 0
-73 -115 0
-73 -130 0
-73 -151 0
-73 -166 0
-73 -190 0
-73 -205 0
-73 -226 0
-73 -235 0
-76 -85 0
-76 -97 0
-76 -127 0
-76 -130 0
-76 -136 0
-76 -157 0
-76 -169 0
-76 -172 0
-76 -178 0
-76 -184 0
-76 -187 0
-76 -196 0
-76 -211 0
-76 -226 0
-76 -235 0
-79 -22 0
-79 -70 0
-79 -85 0
-79 -97 0
-79 -121 0
-79 -148 0
-79 -157 0
-79 -160 0
-79 -163 0
-79 -169 0
-79 -175 0
-79 -193 0
-79 -214 0
-79 -235 0
-82 -13 0
-82 -37 0
-82 -100 0
-82 -160 0
-82 -166 0
-82 -172 0
-82 -175 0
-82 -178 0
-82 -187 0
-82 -205 0
-82 -211 0
-82 -214 0
-82 -232 0
-85 -16 0
-85 -34 0
-85 -43 0
-85 -61 0
-85 -76 0
-85 -79 0
-85 -94 0
-85 -106 0
-85 -118 0
-85 -136 0
-85 -139 0
-85 -154 0
-85 -235 0
-88 -16 0
-88 -34 0
-88 -61 0
-88 -73 0
-88 -91 0
-88 -103 0
-88 -109 0
-88 -118 0
-88 -121 0
-88 -139 0
-88 -148 0
-88 -172 0
-88 -187 0
-88 -205 0
-88 -214 0
-91 -4 0
-91 -7 0
-91 -31 0
-91 -34 0
-91 -61 0
-91 -88 0
-91 -109 0
-91 -112 0
-91 -133 0
-91 -142 0
-91 -175 0
-91 -178 0
-91 -181 0
-91 -193 0
-91 -229 0
-94 -4 0
-94 -13 0
-94 -58 0
-94 -85 0
-94 -103 0
-94 -115 0
-94 -118 0
-94 -121 0
-94 -148 0
-94 -151 0
-94 -166 0
-94 -187 0
-94 -199 0
-97 -10 0
-97 -25 0
-97 -37 0
-97 -40 0
-97 -46 0
-97 -55 0
-97 -70 0
-97 -76 0
-97 -79 0
-97 -139 0
-97 -142 0
-97 -163 0
-97 -178 0
-97 -220 0
-100 -82 0
-100 -121 0
-100 -136 0
-100 -145 0
-100 -163 0
-100 -172 0
-100 -178 0
-100 -184 0
-100 -196 0
-100 -202 0
-100 -208 0
-100 -217 0
-100 -226 0
-100 -238 0
-103 -13 0
-103 -28 0
-103 -61 0
-103 -88 0
-103 -94 0
-103 -112 0
-103 -130 0
-103 -142 0
-103 -145 0
-103 -178 0
-103 -193 0
-103 -226 0
-103 -235 0
-106 -19 0
-106 -46 0
-106 -55 0
-106 -70 0
-106 -85 0
-106 -109 0
-106 -115 0
-106 -136 0
-106 -142 0
-106 -145 0
-106 -151 0
-106 -157 0
-106 -184 0
-106 -226 0
-106 -235 0
-109 -13 0
-109 -55 0
-109 -88 0
-109 -91 0
-109 -106 0
-109 -112 0
-109 -121 0
-109 -133 0
-109 -139 0
-109 -178 0
-109 -199 0
-109 -205 0
-109 -211 0
-109 -217 0
-109 -232 0
-112 -7 0
-112 -28 0
-112 -49 0
-112 -52 0
-112 -67 0
-112 -73 0
-112 -91 0
-112 -103 0
-112 -109 0
-112 -148 0
-112 -151 0
-112 -160 0
-112 -187 0
-115 -1 0
-115 -4 0
-115 -28 0
-115 -43 0
-115 -46 0
-115 -73 0
-115 -94 0
-115 -106 0
-115 -118 0
-115 -136 0
-115 -166 0
-115 -175 0
-115 -184 0
-115 -205 0
-115 -226 0
-118 -1 0
-118 -13 0
-118 -22 0
-118 -46 0
-118 -55 0
-118 -85 0
-118 -88 0
-118 -94 0
-118 -115 0
-118 -124 0
-118 -127 0
-118 -136 0
-118 -139 0
-118 -160 0
-121 -7 0
-121 -10 0
-121 -13 0
-121 -37 0
-121 -49 0
-121 -79 0
-121 -88 0
-121 -94 0
-121 -100 0
-121 -109 0
-121 -127 0
-121 -136 0
-121 -145 0
-121 -181 0
-124 -34 0
-124 -67 0
-124 -118 0
-124 -127 0
-124 -130 0
-124 -133 0
-124 -142 0
-124 -148 0
-124 -178 0
-124 -184 0
-124 -205 0
-124 -220 0
-124 -235 0
-124 -238 0
-127 -7 0
-127 -58 0
-127 -76 0
-127 -118 0
-127 -121 0
-127 -124 0
-127 -145 0
-127 -157 0
-127 -193 0
-127 -199 0
-127 -205 0
-127 -208 0
-127 -238 0
-130 -7 0
-130 -10 0
-130 -19 0
-130 -31 0
-130 -43 0
-130 -49 0
-130 -52 0
-130 -58 0
-130 -64 0
-130 -73 0
-130 -76 0
-130 -103 0
-130 -124 0
-133 -4 0
-133 -16 0
-133 -43 0
-133 -67 0
-133 -91 0
-133 -109 0
-133 -124 0
-133 -160 0
-133 -163 0
-133 -172 0
-133 -199 0
-133 -208 0
-133 -214 0
-133 -220 0
-133 -229 0
-136 -7 0
-136 -10 0
-136 -49 0
-136 -52 0
-136 -61 0
-136 -70 0
-136 -76 0
-136 -85 0
-136 -100 0
-136 -106 0
-136 -115 0
-136 -118 0
-136 -121 0
-136 -226 0
-139 -10 0
-139 -19 0
-139 -52 0
-139 -85 0
-139 -88 0
-139 -97 0
-139 -109 0
-139 -118 0
-139 -211 0
-139 -235 0
-139 -238 0
-142 -1 0
-142 -10 0
-142 -40 0
-142 -52 0
-142 -70 0
-142 -91 0
-142 -97 0
-142 -103 0
-142 -106 0
-142 -124 0
-142 -160 0
-142 -169 0
-142 -211 0
-142 -226 0
-145 -10 0
-145 -16 0
-145 -19 0
-145 -25 0
-145 -34 0
-145 -49 0
-145 -64 0
-145 -67 0
-145 -100 0
-145 -103 0
-145 -106 0
-145 -121 0
-145 -127 0
-148 -16 0
-148 -43 0
-148 -52 0
-148 -58 0
-148 -79 0
-148 -88 0
-148 -94 0
-148 -112 0
-148 -124 0
-148 -157 0
-148 -202 0
-148 -211 0
-148 -214 0
-148 -220 0
-148 -232 0
-151 -1 0
-151 -7 0
-151 -70 0
-151 -73 0
-151 -94 0
-151 -106 0
-151 -112 0
-151 -166 0
-151 -169 0
-151 -175 0
-151 -184 0
-151 -190 0
-151 -220 0
-154 -25 0
-154 -46 0
-154 -61 0
-154 -85 0
-154 -157 0
-154 -169 0
-154 -175 0
-154 -178 0
-154 -202 0
-154 -205 0
-154 -211 0
-154 -226 0
-154 -229 0
-157 -25 0
-157 -49 0
-157 -76 0
-157 -79 0
-157 -106 0
-157 -127 0
-157 -148 0
-157 -154 0
-157 -163 0
-157 -166 0
-157 -172 0
-157 -184 0
-157 -196 0
-157 -202 0
-160 -16 0
-160 -37 0
-160 -55 0
-160 -79 0
-160 -82 0
-160 -112 0
-160 -118 0
-160 -133 0
-160 -142 0
-160 -172 0
-160 -202 0
-160 -211 0
-160 -214 0
-160 -223 0
-163 -10 0
-163 -28 0
-163 -49 0
-163 -52 0
-163 -55 0
-163 -64 0
-163 -70 0
-163 -79 0
-163 -97 0
-163 -100 0
-163 -133 0
-163 -157 0
-163 -208 0
-163 -223 0
-166 -10 0
-166 -16 0
-166 -64 0
-166 -73 0
-166 -82 0
-166 -94 0
-166 -115 0
-166 -151 0
-166 -157 0
-166 -190 0
-166 -196 0
-166 -199 0
-166 -202 0
-169 -22 0
-169 -58 0
-169 -76 0
-169 -79 0
-169 -142 0
-169 -151 0
-169 -154 0
-169 -175 0
-169 -184 0
-169 -190 0
-169 -196 0
-169 -205 0
-169 -220 0
-169 -238 0
-172 -13 0
-172 -19 0
-172 -25 0
-172 -34 0
-172 -46 0
-172 -67 0
-172 -76 0
-172 -82 0
-172 -88 0
-172 -100 0
-172 -133 0
-172 -157 0
-172 -160 0
-172 -193 0
-172 -214 0
-175 -19 0
-175 -34 0
-175 -46 0
-175 -55 0
-175 -58 0
-175 -79 0
-175 -82 0
-175 -91 0
-175 -115 0
-175 -151 0
-175 -154 0
-175 -169 0
-175 -184 0
-175 -193 0
-175 -202 0
-178 -52 0
-178 -55 0
-178 -76 0
-178 -82 0
-178 -91 0
-178 -97 0
-178 -100 0
-178 -103 0
-178 -109 0
-178 -124 0
-178 -154 0
-178 -184 0
-178 -214 0
-178 -220 0
-181 -49 0
-181 -91 0
-181 -121 0
-181 -184 0
-181 -187 0
-181 -190 0
-181 -202 0
-181 -208 0
-181 -217 0
-181 -223 0
-181 -229 0
-184 -4 0
-184 -49 0
-184 -76 0
-184 -100 0
-184 -106 0
-184 -115 0
-184 -124 0
-184 -151 0
-184 -157 0
-184 -169 0
-184 -175 0
-184 -178 0
-184 -181 0
-184 -202 0
-187 -43 0
-187 -55 0
-187 -61 0
-187 -64 0
-187 -76 0
-187 -82 0
-187 -88 0
-187 -94 0
-187 -112 0
-187 -181 0
-187 -190 0
-187 -193 0
-187 -202 0
-190 -1 0
-190 -40 0
-190 -58 0
-190 -64 0
-190 -73 0
-190 -151 0
-190 -166 0
-190 -169 0
-190 -181 0
-190 -187 0
-190 -223 0
-190 -238 0
-193 -4 0
-193 -19 0
-193 -37 0
-193 -52 0
-193 -79 0
-193 -91 0
-193 -103 0
-193 -127 0
-193 -172 0
-193 -175 0
-193 -187 0
-193 -217 0
-193 -220 0
-196 -22 0
-196 -25 0
-196 -37 0
-196 -43 0
-196 -46 0
-196 -70 0
-196 -76 0
-196 -100 0
-196 -157 0
-196 -166 0
-196 -169 0
-196 -217 0
-196 -229 0
-196 -238 0
-199 -7 0
-199 -22 0
-199 -31 0
-199 -43 0
-199 -46 0
-199 -49 0
-199 -55 0
-199 -58 0
-199 -70 0
-199 -94 0
-199 -109 0
-199 -127 0
-199 -133 0
-199 -166 0
-202 -13 0
-202 -52 0
-202 -58 0
-202 -70 0
-202 -100 0
-202 -148 0
-202 -154 0
-202 -157 0
-202 -160 0
-202 -166 0
-202 -175 0
-202 -181 0
-202 -184 0
-202 -187 0
-205 -25 0
-205 -28 0
-205 -46 0
-205 -52 0
-205 -73 0
-205 -82 0
-205 -88 0
-205 -109 0
-205 -115 0
-205 -124 0
-205 -127 0
-205 -154 0
-205 -169 0
-208 -4 0
-208 -7 0
-208 -31 0
-208 -43 0
-208 -58 0
-208 -61 0
-208 -64 0
-208 -100 0
-208 -127 0
-208 -133 0
-208 -163 0
-208 -181 0
-208 -223 0
-211 -1 0
-211 -10 0
-211 -43 0
-211 -76 0
-211 -82 0
-211 -109 0
-211 -139 0
-211 -142 0
-211 -148 0
-211 -154 0
-211 -160 0
-214 -1 0
-214 -10 0
-214 -22 0
-214 -43 0
-214 -46 0
-214 -52 0
-214 -61 0
-214 -79 0
-214 -82 0
-214 -88 0
-214 -133 0
-214 -148 0
-214 -160 0
-214 -172 0
-214 -178 0
-217 -25 0
-217 -49 0
-217 -61 0
-217 -100 0
-217 -109 0
-217 -181 0
-217 -193 0
-217 -196 0
-217 -220 0
-217 -223 0
-217 -229 0
-217 -238 0
-220 -4 0
-220 -22 0
-220 -37 0
-220 -97 0
-220 -124 0
-220 -133 0
-220 -148 0
-220 -151 0
-220 -169 0
-220 -178 0
-220 -193 0
-220 -217 0
-220 -229 0
-223 -1 0
-223 -16 0
-223 -34 0
-223 -37 0
-223 -46 0
-223 -160 0
-223 -163 0
-223 -181 0
-223 -190 0
-223 -208 0
-223 -217 0
-226 -7 0
-226 -31 0
-226 -37 0
-226 -40 0
-226 -49 0
-226 -67 0
-226 -73 0
-226 -76 0
-226 -100 0
-226 -103 0
-226 -106 0
-226 -115 0
-226 -136 0
-226 -142 0
-226 -154 0
-229 -7 0
-229 -55 0
-229 -67 0
-229 -91 0
-229 -133 0
-229 -154 0
-229 -181 0
-229 -196 0
-229 -217 0
-229 -220 0
-232 -1 0
-232 -4 0
-232 -16 0
-232 -19 0
-232 -25 0
-232 -31 0
-232 -34 0
-232 -40 0
-232 -43 0
-232 -49 0
-232 -67 0
-232 -82 0
-232 -109 0
-232 -148 0
-235 -16 0
-235 -37 0
-235 -40 0
-235 -43 0
-235 -55 0
-235 -73 0
-235 -76 0
-235 -79 0
-235 -85 0
-235 -103 0
-235 -106 0
-235 -124 0
-235 -139 0
-238 -16 0
-238 -19 0
-238 -22 0
-238 -70 0
-238 -100 0
-238 -124 0
-238 -127 0
-238 -139 0
-238 -169 0
-238 -190 0
-238 -196 0
-238 -217 0
-2 -14 0
-2 -20 0
-2 -29 0
-2 -35 0
-2 -41 0
-2 -116 0
-2 -119 0
-2 -143 0
-2 -152 0
-2 -191 0
-2 -212 0
-2 -215 0
-2 -224 0
-2 -233 0
-5 -8 0
-5 -26 0
-5 -47 0
-5 -56 0
-5 -65 0
-5 -92 0
-5 -95 0
-5 -116 0
-5 -134 0
-5 -185 0
-5 -194 0
-5 -209 0
-5 -221 0
-5 -233 0
-8 -5 0
-8 -29 0
-8 -65 0
-8 -68 0
-8 -92 0
-8 -113 0
-8 -122 0
-8 -128 0
-8 -131 0
-8 -137 0
-8 -152 0
-8 -200 0
-8 -209 0
-8 -227 0
-8 -230 0
-11 -20 0
-11 -35 0
-11 -41 0
-11 -47 0
-11 -98 0
-11 -122 0
-11 -131 0
-11 -137 0
-11 -140 0
-11 -143 0
-11 -146 0
-11 -164 0
-11 -167 0
-11 -212 0
-11 -215 0
-14 -2 0
-14 -17 0
-14 -29 0
-14 -59 0
-14 -62 0
-14 -74 0
-14 -83 0
-14 -95 0
-14 -104 0
-14 -110 0
-14 -119 0
-14 -122 0
-14 -173 0
-14 -203 0
-17 -14 0
-17 -65 0
-17 -68 0
-17 -74 0
-17 -86 0
-17 -89 0
-17 -134 0
-17 -146 0
-17 -149 0
-17 -161 0
-17 -167 0
-17 -224 0
-17 -233 0
-17 -236 0
-17 -239 0
-20 -2 0
-20 -11 0
-20 -26 0
-20 -29 0
-20 -68 0
-20 -107 0
-20 -131 0
-20 -140 0
-20 -146 0
-20 -173 0
-20 -176 0
-20 -194 0
-20 -233 0
-20 -239 0
-23 -32 0
-23 -38 0
-23 -41 0
-23 -59 0
-23 -80 0
-23 -119 0
-23 -170 0
-23 -197 0
-23 -200 0
-23 -215 0
-23 -221 0
-23 -239 0
-26 -5 0
-26 -20 0
-26 -29 0
-26 -32 0
-26 -98 0
-26 -146 0
-26 -155 0
-26 -158 0
-26 -173 0
-26 -197 0
-26 -206 0
-26 -218 0
-26 -233 0
-29 -2 0
-29 -8 0
-29 -14 0
-29 -20 0
-29 -26 0
-29 -32 0
-29 -35 0
-29 -47 0
-29 -62 0
-29 -104 0
-29 -113 0
-29 -116 0
-29 -164 0
-29 -206 0
-32 -23 0
-32 -26 0
-32 -29 0
-32 -44 0
-32 -62 0
-32 -68 0
-32 -71 0
-32 -92 0
-32 -131 0
-32 -200 0
-32 -209 0
-32 -227 0
-32 -233 0
-35 -2 0
-35 -11 0
-35 -29 0
-35 -68 0
-35 -74 0
-35 -86 0
-35 -89 0
-35 -92 0
-35 -125 0
-35 -146 0
-35 -173 0
-35 -176 0
-35 -224 0
-35 -233 0
-38 -23 0
-38 -50 0
-38 -59 0
-38 -74 0
-38 -83 0
-38 -98 0
-38 -122 0
-38 -161 0
-38 -194 0
-38 -197 0
-38 -221 0
-38 -224 0
-38 -227 0
-38 -236 0
-41 -2 0
-41 -11 0
-41 -23 0
-41 -65 0
-41 -71 0
-41 -98 0
-41 -143 0
-41 -191 0
-41 -227 0
-41 -233 0
-41 -236 0
-44 -32 0
-44 -86 0
-44 -116 0
-44 -131 0
-44 -134 0
-44 -149 0
-44 -188 0
-44 -197 0
-44 -200 0
-44 -209 0
-44 -212 0
-44 -215 0
-44 -233 0
-44 -236 0
-47 -5 0
-47 -11 0
-47 -29 0
-47 -98 0
-47 -107 0
-47 -116 0
-47 -119 0
-47 -155 0
-47 -173 0
-47 -176 0
-47 -197 0
-47 -200 0
-47 -206 0
-47 -215 0
-47 -224 0
-50 -38 0
-50 -74 0
-50 -113 0
-50 -122 0
-50 -131 0
-50 -137 0
-50 -146 0
-50 -158 0
-50 -164 0
-50 -182 0
-50 -185 0
-50 -200 0
-50 -218 0
-50 -227 0
-50 -233 0
-53 -113 0
-53 -131 0
-53 -137 0
-53 -140 0
-53 -143 0
-53 -149 0
-53 -164 0
-53 -179 0
-53 -194 0
-53 -203 0
-53 -206 0
-53 -215 0
-56 -5 0
-56 -65 0
-56 -98 0
-56 -107 0
-56 -110 0
-56 -119 0
-56 -161 0
-56 -164 0
-56 -176 0
-56 -179 0
-56 -188 0
-56 -200 0
-56 -230 0
-56 -236 0
-59 -14 0
-59 -23 0
-59 -38 0
-59 -71 0
-59 -95 0
-59 -128 0
-59 -131 0
-59 -149 0
-59 -170 0
-59 -176 0
-59 -191 0
-59 -200 0
-59 -203 0
-59 -209 0
-62 -14 0
-62 -29 0
-62 -32 0
-62 -68 0
-62 -86 0
-62 -89 0
-62 -92 0
-62 -104 0
-62 -137 0
-62 -155 0
-62 -188 0
-62 -209 0
-62 -215 0
-62 -218 0
-65 -5 0
-65 -8 0
-65 -17 0
-65 -41 0
-65 -56 0
-65 -71 0
-65 -131 0
-65 -146 0
-65 -164 0
-65 -167 0
-65 -188 0
-65 -191 0
-65 -209 0
-68 -8 0
-68 -17 0
-68 -20 0
-68 -32 0
-68 -35 0
-68 -62 0
-68 -113 0
-68 -125 0
-68 -134 0
-68 -146 0
-68 -173 0
-68 -227 0
-68 -230 0
-68 -233 0
-71 -32 0
-71 -41 0
-71 -59 0
-71 -65 0
-71 -80 0
-71 -98 0
-71 -107 0
-71 -137 0
-71 -143 0
-71 -152 0
-71 -164 0
-71 -197 0
-71 -200 0
-71 -203 0
-71 -239 0
-74 -14 0
-74 -17 0
-74 -35 0
-74 -38 0
-74 -50 0
-74 -89 0
-74 -113 0
-74 -116 0
-74 -131 0
-74 -152 0
-74 -167 0
-74 -191 0
-74 -206 0
-74 -227 0
-74 -236 0
-77 -86 0
-77 -98 0
-77 -128 0
-77 -131 0
-77 -137 0
-77 -158 0
-77 -170 0
-77 -173 0
-77 -179 0
-77 -185 0
-77 -188 0
-77 -197 0
-77 -212 0
-77 -227 0
-77 -236 0
-80 -23 0
-80 -71 0
-80 -86 0
-80 -98 0
-80 -122 0
-80 -149 0
-80 -158 0
-80 -161 0
-80 -164 0
-80 -170 0
-80 -176 0
-80 -194 0
-80 -215 0
-80 -236 0
-83 -14 0
-83 -38 0
-83 -101 0
-83 -161 0
-83 -167 0
-83 -173 0
-83 -176 0
-83 -179 0
-83 -188 0
-83 -206 0
-83 -212 0
-83 -215 0
-83 -233 0
-86 -17 0
-86 -35 0
-86 -44 0
-86 -62 0
-86 -77 0
-86 -80 0
-86 -95 0
-86 -107 0
-86 -119 0
-86 -137 0
-86 -140 0
-86 -155 0
-86 -236 0
-89 -17 0
-89 -35 0
-89 -62 0
-89 -74 0
-89 -92 0
-89 -104 0
-89 -110 0
-89 -119 0
-89 -122 0
-89 -140 0
-89 -149 0
-89 -173 0
-89 -188 0
-89 -206 0
-89 -215 0
-92 -5 0
-92 -8 0
-92 -32 0
-92 -35 0
-92 -62 0
-92 -89 0
-92 -110 0
-92 -113 0
-92 -134 0
-92 -143 0
-92 -176 0
-92 -179 0
-92 -182 0
-92 -194 0
-92 -230 0
-95 -5 0
-95 -14 0
-95 -59 0
-95 -86 0
-95 -104 0
-95 -116 0
-95 -119 0
-95 -122 0
-95 -149 0
-95 -152 0
-95 -167 0
-95 -188 0
-95 -200 0
-98 -11 0
-98 -26 0
-98 -38 0
-98 -41 0
-98 -47 0
-98 -56 0
-98 -71 0
-98 -77 0
-98 -80 0
-98 -140 0
-98 -143 0
-98 -164 0
-98 -179 0
-98 -221 0
-101 -83 0
-101 -122 0
-101 -137 0
-101 -146 0
-101 -164 0
-101 -173 0
-101 -179 0
-101 -185 0
-101 -197 0
-101 -203 0
-101 -209 0
-101 -218 0
-101 -227 0
-101 -239 0
-104 -14 0
-104 -29 0
-104 -62 0
-104 -89 0
-104 -95 0
-104 -113 0
-104 -131 0
-104 -143 0
-104 -146 0
-104 -179 0
-104 -194 0
-104 -227 0
-104 -236 0
-107 -20 0
-107 -47 0
-107 -56 0
-107 -71 0
-107 -86 0
-107 -110 0
-107 -116 0
-107 -137 0
-107 -143 0
-107 -146 0
-107 -152 0
-107 -158 0
-107 -185 0
-107 -227 0
-107 -236 0
-110 -14 0
-110 -56 0
-110 -89 0
-110 -92 0
-110 -107 0
-110 -113 0
-110 -122 0
-110 -134 0
-110 -140 0
-110 -179 0
-110 -200 0
-110 -206 0
-110 -212 0
-110 -218 0
-110 -233 0
-113 -8 0
-113 -29 0
-113 -50 0
-113 -53 0
-113 -68 0
-113 -74 0
-113 -92 0
-113 -104 0
-113 -110 0
-113 -149 0
-113 -152 0
-113 -161 0
-113 -188 0
-116 -2 0
-116 -5 0
-116 -29 0
-116 -44 0
-116 -47 0
-116 -74 0
-116 -95 0
-116 -107 0
-116 -119 0
-116 -137 0
-116 -167 0
-116 -176 0
-116 -185 0
-116 -206 0
-116 -227 0
-119 -2 0
-119 -14 0
-119 -23 0
-119 -47 0
-119 -56 0
-119 -86 0
-119 -89 0
-119 -95 0
-119 -116 0
-119 -125 0
-119 -128 0
-119 -137 0
-119 -140 0
-119 -161 0
-122 -8 0
-122 -11 0
-122 -14 0
-122 -38 0
-122 -50 0
-122 -80 0
-122 -89 0
-122 -95 0
-122 -101 0
-122 -110 0
-122 -128 0
-122 -137 0
-122 -146 0
-122 -182 0
-125 -35 0
-125 -68 0
-125 -119 0
-125 -128 0
-125 -131 0
-125 -134 0
-125 -143 0
-125 -149 0
-125 -179 0
-125 -185 0
-125 -206 0
-125 -221 0
-125 -236 0
-125 -239 0
-128 -8 0
-128 -59 0
-128 -77 0
-128 -119 0
-128 -122 0
-128 -125 0
-128 -146 0
-128 -158 0
-128 -194 0
-128 -200 0
-128 -206 0
-128 -209 0
-128 -239 0
-131 -8 0
-131 -11 0
-131 -20 0
-131 -32 0
-131 -44 0
-131 -50 0
-131 -53 0
-131 -59 0
-131 -65 0
-131 -74 0
-131 -77 0
-131 -104 0
-131 -125 0
-134 -5 0
-134 -17 0
-134 -44 0
-134 -68 0
-134 -92 0
-134 -110 0
-134 -125 0
-134 -161 0
-134 -164 0
-134 -173 0
-134 -200 0
-134 -209 0
-134 -215 0
-134 -221 0
-134 -230 0
-137 -8 0
-137 -11 0
-137 -50 0
-137 -53 0
-137 -62 0
-137 -71 0
-137 -77 0
-137 -86 0
-137 -101 0
-137 -107 0
-137 -116 0
-137 -119 0
-137 -122 0
-137 -227 0
-140 -11 0
-140 -20 0
-140 -53 0
-140 -86 0
-140 -89 0
-140 -98 0
-140 -110 0
-140 -119 0
-140 -212 0
-140 -236 0
-140 -239 0
-143 -2 0
-143 -11 0
-143 -41 0
-143 -53 0
-143 -71 0
-143 -92 0
-143 -98 0
-143 -104 0
-143 -107 0
-143 -125 0
-143 -161 0
-143 -170 0
-143 -212 0
-143 -227 0
-146 -11 0
-146 -17 0
-146 -20 0
-146 -26 0
-146 -35 0
-146 -50 0
-146 -65 0
-146 -68 0
-146 -101 0
-146 -104 0
-146 -107 0
-146 -122 0
-146 -128 0
-149 -17 0
-149 -44 0
-149 -53 0
-149 -59 0
-149 -80 0
-149 -89 0
-149 -95 0
-149 -113 0
-149 -125 0
-149 -158 0
-149 -203 0
-149 -212 0
-149 -215 0
-149 -221 0
-149 -233 0
-152 -2 0
-152 -8 0
-152 -71 0
-152 -74 0
-152 -95 0
-152 -107 0
-152 -113 0
-152 -167 0
-152 -170 0
-152 -176 0
-152 -185 0
-152 -191 0
-152 -221 0
-155 -26 0
-155 -47 0
-155 -62 0
-155 -86 0
-155 -158 0
-155 -170 0
-155 -176 0
-155 -179 0
-155 -203 0
-155 -206 0
-155 -212 0
-155 -227 0
-155 -230 0
-158 -26 0
-158 -50 0
-158 -77 0
-158 -80 0
-158 -107 0
-158 -128 0
-158 -149 0
-158 -155 0
-158 -164 0
-158 -167 0
-158 -173 0
-158 -185 0
-158 -197 0
-158 -203 0
-161 -17 0
-161 -38 0
-161 -56 0
-161 -80 0
-161 -83 0
-161 -113 0
-161 -119 0
-161 -134 0
-161 -143 0
-161 -173 0
-161 -203 0
-161 -212 0
-161 -215 0
-161 -224 0
-164 -11 0
-164 -29 0
-164 -50 0
-164 -53 0
-164 -56 0
-164 -65 0
-164 -71 0
-164 -80 0
-164 -98 0
-164 -101 0
-164 -134 0
-164 -158 0
-164 -209 0
-164 -224 0
-167 -11 0
-167 -17 0
-167 -65 0
-167 -74 0
-167 -83 0
-167 -95 0
-167 -116 0
-167 -152 0
-167 -158 0
-167 -191 0
-167 -197 0
-167 -200 0
-167 -203 0
-170 -23 0
-170 -59 0
-170 -77 0
-170 -80 0
-170 -143 0
-170 -152 0
-170 -155 0
-170 -176 0
-170 -185 0
-170 -191 0
-170 -197 0
-170 -206 0
-170 -221 0
-170 -239 0
-173 -14 0
-173 -20 0
-173 -26 0
-173 -35 0
-173 -47 0
-173 -68 0
-173 -77 0
-173 -83 0
-173 -89 0
-173 -101 0
-173 -134 0
-173 -158 0
-173 -161 0
-173 -194 0
-173 -215 0
-176 -20 0
-176 -35 0
-176 -47 0
-176 -56 0
-176 -59 0
-176 -80 0
-176 -83 0
-176 -92 0
-176 -116 0
-176 -152 0
-176 -155 0
-176 -170 0
-176 -185 0
-176 -194 0
-176 -203 0
-179 -53 0
-179 -56 0
-179 -77 0
-179 -83 0
-179 -92 0
-179 -98 0
-179 -101 0
-179 -104 0
-179 -110 0
-179 -125 0
-179 -155 0
-179 -185 0
-179 -215 0
-179 -221 0
-182 -50 0
-182 -92 0
-182 -122 0
-182 -185 0
-182 -188 0
-182 -191 0
-182 -203 0
-182 -209 0
-182 -218 0
-182 -224 0
-182 -230 0
-185 -5 0
-185 -50 0
-185 -77 0
-185 -101 0
-185 -107 0
-185 -116 0
-185 -125 0
-185 -152 0
-185 -158 0
-185 -170 0
-185 -176 0
-185 -179 0
-185 -182 0
-185 -203 0
-188 -44 0
-188 -56 0
-188 -62 0
-188 -65 0
-188 -77 0
-188 -83 0
-188 -89 0
-188 -95 0
-188 -113 0
-188 -182 0
-188 -191 0
-188 -194 0
-188 -203 0
-191 -2 0
-191 -41 0
-191 -59 0
-191 -65 0
-191 -74 0
-191 -152 0
-191 -167 0
-191 -170 0
-191 -182 0
-191 -188 0
-191 -224 0
-191 -239 0
-194 -5 0
-194 -20 0
-194 -38 0
-194 -53 0
-194 -80 0
-194 -92 0
-194 -104 0
-194 -128 0
-194 -173 0
-194 -176 0
-194 -188 0
-194 -218 0
-194 -221 0
-197 -23 0
-197 -26 0
-197 -38 0
-197 -44 0
-197 -47 0
-197 -71 0
-197 -77 0
-197 -101 0
-197 -158 0
-197 -167 0
-197 -170 0
-197 -218 0
-197 -230 0
-197 -239 0
-200 -8 0
-200 -23 0
-200 -32 0
-200 -44 0
-200 -47 0
-200 -50 0
-200 -56 0
-200 -59 0
-200 -71 0
-200 -95 0
-200 -110 0
-200 -128 0
-200 -134 0
-200 -167 0
-203 -14 0
-203 -53 0
-203 -59 0
-203 -71 0
-203 -101 0
-203 -149 0
-203 -155 0
-203 -158 0
-203 -161 0
-203 -167 0
-203 -176 0
-203 -182 0
-203 -185 0
-203 -188 0
-206 -26 0
-206 -29 0
-206 -47 0
-206 -53 0
-206 -74 0
-206 -83 0
-206 -89 0
-206 -110 0
-206 -116 0
-206 -125 0
-206 -128 0
-206 -155 0
-206 -170 0
-209 -5 0
-209 -8 0
-209 -32 0
-209 -44 0
-209 -59 0
-209 -62 0
-209 -65 0
-209 -101 0
-209 -128 0
-209 -134 0
-209 -164 0
-209 -182 0
-209 -224 0
-212 -2 0
-212 -11 0
-212 -44 0
-212 -77 0
-212 -83 0
-212 -110 0
-212 -140 0
-212 -143 0
-212 -149 0
-212 -155 0
-212 -161 0
-215 -2 0
-215 -11 0
-215 -23 0
-215 -44 0
-215 -47 0
-215 -53 0
-215 -62 0
-215 -80 0
-215 -83 0
-215 -89 0
-215 -134 0
-215 -149 0
-215 -161 0
-215 -173 0
-215 -179 0
-218 -26 0
-218 -50 0
-218 -62 0
-218 -101 0
-218 -110 0
-218 -182 0
-218 -194 0
-218 -197 0
-218 -221 0
-218 -224 0
-218 -230 0
-218 -239 0
-221 -5 0
-221 -23 0
-221 -38 0
-221 -98 0
-221 -125 0
-221 -134 0
-221 -149 0
-221 -152 0
-221 -170 0
-221 -179 0
-221 -194 0
-221 -218 0
-221 -230 0
-224 -2 0
-224 -17 0
-224 -35 0
-224 -38 0
-224 -47 0
-224 -161 0
-224 -164 0
-224 -182 0
-224 -191 0
-224 -209 0
-224 -218 0
-227 -8 0
-227 -32 0
-227 -38 0
-227 -41 0
-227 -50 0
-227 -68 0
-227 -74 0
-227 -77 0
-227 -101 0
-227 -104 0
-227 -107 0
-227 -116 0
-227 -137 0
-227 -143 0
-227 -155 0
-230 -8 0
-230 -56 0
-230 -68 0
-230 -92 0
-230 -134 0
-230 -155 0
-230 -182 0
-230 -197 0
-230 -218 0
-230 -221 0
-233 -2 0
-233 -5 0
-233 -17 0
-233 -20 0
-233 -26 0
-233 -32 0
-233 -35 0
-233 -41 0
-233 -44 0
-233 -50 0
-233 -68 0
-233 -83 0
-233 -110 0
-233 -149 0
-236 -17 0
-236 -38 0
-236 -41 0
-236 -44 0
-236 -56 0
-236 -74 0
-236 -77 0
-236 -80 0
-236 -86 0
-236 -104 0
-236 -107 0
-236 -125 0
-236 -140 0
-239 -17 0
-239 -20 0
-239 -23 0
-239 -71 0
-239 -101 0
-239 -125 0
-239 -128 0
-239 -140 0
-239 -170 0
-239 -191 0
-239 -197 0
-239 -218 0
-3 -15 0
-3 -21 0
-3 -30 0
-3 -36 0
-3 -42 0
-3 -117 0
-3 -120 0
-3 -144 0
-3 -153 0
-3 -192 0
-3 -213 0
-3 -216 0
-3 -225 0
-3 -234 0
-6 -9 0
-6 -27 0
-6 -48 0
-6 -57 0
-6 -66 0
-6 -93 0
-6 -96 0
-6 -117 0
-6 -135 0
-6 -186 0
-6 -195 0
-6 -210 0
-6 -222 0
-6 -234 0
-9 -6 0
-9 -30 0
-9 -66 0
-9 -69 0
-9 -93 0
-9 -114 0
-9 -123 0
-9 -129 0
-9 -132 0
-9 -138 0
-9 -153 0
-9 -201 0
-9 -210 0
-9 -228 0
-9 -231 0
-12 -21 0
-12 -36 0
-12 -42 0
-12 -48 0
-12 -99 0
-12 -123 0
-12 -132 0
-12 -138 0
-12 -141 0
-12 -144 0
-12 -147 0
-12 -165 0
-12 -168 0
-12 -213 0
-12 -216 0
-15 -3 0
-15 -18 0
-15 -30 0
-15 -60 0
-15 -63 0
-15 -75 0
-15 -84 0
-15 -96 0
-15 -105 0
-15 -111 0
-15 -120 0
-15 -123 0
-15 -174 0
-15 -204 0
-18 -15 0
-18 -66 0
-18 -69 0
-18 -75 0
-18 -87 0
-18 -90 0
-18 -135 0
-18 -147 0
-18 -150 0
-18 -162 0
-18 -168 0
-18 -225 0
-18 -234 0
-18 -237 0
-18 -240 0
-21 -3 0
-21 -12 0
-21 -27 0
-21 -30 0
-21 -69 0
-21 -108 0
-21 -132 0
-21 -141 0
-21 -147 0
-21 -174 0
-21 -177 0
-21 -195 0
-21 -234 0
-21 -240 0
-24 -33 0
-24 -39 0
-24 -42 0
-24 -60 0
-24 -81 0
-24 -120 0
-24 -171 0
-24 -198 0
-24 -201 0
-24 -216 0
-24 -222 0
-24 -240 0
-27 -6 0
-27 -21 0
-27 -30 0
-27 -33 0
-27 -99 0
-27 -147 0
-27 -156 0
-27 -159 0
-27 -174 0
-27 -198 0
-27 -207 0
-27 -219 0
-27 -234 0
-30 -3 0
-30 -9 0
-30 -15 0
-30 -21 0
-30 -27 0
-30 -33 0
-30 -36 0
-30 -48 0
-30 -63 0
-30 -105 0
-30 -114 0
-30 -117 0
-30 -165 0
-30 -207 0
-33 -24 0
-33 -27 0
-33 -30 0
-33 -45 0
-33 -63 0
-33 -69 0
-33 -72 0
-33 -93 0
-33 -132 0
-33 -201 0
-33 -210 0
-33 -228 0
-33 -234 0
-36 -3 0
-36 -12 0
-36 -30 0
-36 -69 0
-36 -75 0
-36 -87 0
-36 -90 0
-36 -93 0
-36 -126 0
-36 -147 0
-36 -174 0
-36 -177 0
-36 -225 0
-36 -234 0
-39 -24 0
-39 -51 0
-39 -60 0
-39 -75 0
-39 -84 0
-39 -99 0
-39 -123 0
-39 -162 0
-39 -195 0
-39 -198 0
-39 -222 0
-39 -225 0
-39 -228 0
-39 -237 0
-42 -3 0
-42 -12 0
-42 -24 0
-42 -66 0
-42 -72 0
-42 -99 0
-42 -144 0
-42 -192 0
-42 -228 0
-42 -234 0
-42 -237 0
-45 -33 0
-45 -87 0
-45 -117 0
-45 -132 0
-45 -135 0
-45 -150 0
-45 -189 0
-45 -198 0
-45 -201 0
-45 -210 0
-45 -213 0
-45 -216 0
-45 -234 0
-45 -237 0
-48 -6 0
-48 -12 0
-48 -30 0
-48 -99 0
-48 -108 0
-48 -117 0
-48 -120 0
-48 -156 0
-48 -174 0
-48 -177 0
-48 -198 0
-48 -201 0
-48 -207 0
-48 -216 0
-48 -225 0
-51 -39 0
-51 -75 0
-51 -114 0
-51 -123 0
-51 -132 0
-51 -138 0
-51 -147 0
-51 -159 0
-51 -165 0
-51 -183 0
-51 -186 0
-51 -201 0
-51 -219 0
-51 -228 0
-51 -234 0
-54 -114 0
-54 -132 0
-54 -138 0
-54 -141 0
-54 -144 0
-54 -150 0
-54 -165 0
-54 -180 0
-54 -195 0
-54 -204 0
-54 -207 0
-54 -216 0
-57 -6 0
-57 -66 0
-57 -99 0
-57 -108 0
-57 -111 0
-57 -120 0
-57 -162 0
-57 -165 0
-57 -177 0
-57 -180 0
-57 -189 0
-57 -201 0
-57 -231 0
-57 -237 0
-60 -15 0
-60 -24 0
-60 -39 0
-60 -72 0
-60 -96 0
-60 -129 0
-60 -132 0
-60 -150 0
-60 -171 0
-60 -177 0
-60 -192 0
-60 -201 0
-60 -204 0
-60 -210 0
-63 -15 0
-63 -30 0
-63 -33 0
-63 -69 0
-63 -87 0
-63 -90 0
-63 -93 0
-63 -105 0
-63 -138 0
-63 -156 0
-63 -189 0
-63 -210 0
-63 -216 0
-63 -219 0
-66 -6 0
-66 -9 0
-66 -18 0
-66 -42 0
-66 -57 0
-66 -72 0
-66 -132 0
-66 -147 0
-66 -165 0
-66 -168 0
-66 -189 0
-66 -192 0
-66 -210 0
-69 -9 0
-69 -18 0
-69 -21 0
-69 -33 0
-69 -36 0
-69 -63 0
-69 -114 0
-69 -126 0
-69 -135 0
-69 -147 0
-69 -174 0
-69 -228 0
-69 -231 0
-69 -234 0
-72 -33 0
-72 -42 0
-72 -60 0
-72 -66 0
-72 -81 0
-72 -99 0
-72 -108 0
-72 -138 0
-72 -144 0
-72 -153 0
-72 -165 0
-72 -198 0
-72 -201 0
-72 -204 0
-72 -240 0
-75 -15 0
-75 -18 0
-75 -36 0
-75 -39 0
-75 -51 0
-75 -90 0
-75 -114 0
-75 -117 0
-75 -132 0
-75 -153 0
-75 -168 0
-75 -192 0
-75 -207 0
-75 -228 0
-75 -237 0
-78 -87 0
-78 -99 0
-78 -129 0
-78 -132 0
-78 -138 0
-78 -159 0
-78 -171 0
-78 -174 0
-78 -180 0
-78 -186 0
-78 -189 0
-78 -198 0
-78 -213 0
-78 -228 0
-78 -237 0
-81 -24 0
-81 -72 0
-81 -87 0
-81 -99 0
-81 -123 0
-81 -150 0
-81 -159 0
-81 -162 0
-81 -165 0
-81 -171 0
-81 -177 0
-81 -195 0
-81 -216 0
-81 -237 0
-84 -15 0
-84 -39 0
-84 -102 0
-84 -162 0
-84 -168 0
-84 -174 0
-84 -177 0
-84 -180 0
-84 -189 0
-84 -207 0
-84 -213 0
-84 -216 0
-84 -234 0
-87 -18 0
-87 -36 0
-87 -45 0
-87 -63 0
-87 -78 0
-87 -81 0
-87 -96 0
-87 -108 0
-87 -120 0
-87 -138 0
-87 -141 0
-87 -156 0
-87 -237 0
-90 -18 0
-90 -36 0
-90 -63 0
-90 -75 0
-90 -93 0
-90 -105 0
-90 -111 0
-90 -120 0
-90 -123 0
-90 -141 0
-90 -150 0
-90 -174 0
-90 -189 0
-90 -207 0
-90 -216 0
-93 -6 0
-93 -9 0
-93 -33 0
-93 -36 0
-93 -63 0
-93 -90 0
-93 -111 0
-93 -114 0
-93 -135 0
-93 -144 0
-93 -177 0
-93 -180 0
-93 -183 0
-93 -195 0
-93 -231 0
-96 -6 0
-96 -15 0
-96 -60 0
-96 -87 0
-96 -105 0
-96 -117 0
-96 -120 0
-96 -123 0
-96 -150 0
-96 -153 0
-96 -168 0
-96 -189 0
-96 -201 0
-99 -12 0
-99 -27 0
-99 -39 0
-99 -42 0
-99 -48 0
-99 -57 0
-99 -72 0
-99 -78 0
-99 -81 0
-99 -141 0
-99 -144 0
-99 -165 0
-99 -180 0
-99 -222 0
-102 -84 0
-102 -123 0
-102 -138 0
-102 -147 0
-102 -165 0
-102 -174 0
-102 -180 0
-102 -186 0
-102 -198 0
-102 -204 0
-102 -210 0
-102 -219 0
-102 -228 0
-102 -240 0
-105 -15 0
-105 -30 0
-105 -63 0
-105 -90 0
-105 -96 0
-105 -114 0
-105 -132 0
-105 -144 0
-105 -147 0
-105 -180 0
-105 -195 0
-105 -228 0
-105 -237 0
-108 -21 0
-108 -48 0
-108 -57 0
-108 -72 0
-108 -87 0
-108 -111 0
-108 -117 0
-108 -138 0
-108 -144 0
-108 -147 0
-108 -153 0
-108 -159 0
-108 -186 0
-108 -228 0
-108 -237 0
-111 -15 0
-111 -57 0
-111 -90 0
-111 -93 0
-111 -108 0
-111 -114 0
-111 -123 0
-111 -135 0
-111 -141 0
-111 -180 0
-111 -201 0
-111 -207 0
-111 -213 0
-111 -219 0
-111 -234 0
-114 -9 0
-114 -30 0
-114 -51 0
-114 -54 0
-114 -69 0
-114 -75 0
-114 -93 0
-114 -105 0
-114 -111 0
-114 -150 0
-114 -153 0
-114 -162 0
-114 -189 0
-117 -3 0
-117 -6 0
-117 -30 0
-117 -45 0
-117 -48 0
-117 -75 0
-117 -96 0
-117 -108 0
-117 -120 0
-117 -138 0
-117 -168 0
-117 -177 0
-117 -186 0
-117 -207 0
-117 -228 0
-120 -3 0
-120 -15 0
-120 -24 0
-120 -48 0
-120 -57 0
-120 -87 0
-120 -90 0
-120 -96 0
-120 -117 0
-120 -126 0
-120 -129 0
-120 -138 0
-120 -141 0
-120 -162 0
-123 -9 0
-123 -12 0
-123 -15 0
-123 -39 0
-123 -51 0
-123 -81 0
-123 -90 0
-123 -96 0
-123 -102 0
-123 -111 0
-123 -129 0
-123 -138 0
-123 -147 0
-123 -183 0
-126 -36 0
-126 -69 0
-126 -120 0
-126 -129 0
-126 -132 0
-126 -135 0
-126 -144 0
-126 -150 0
-126 -180 0
-126 -186 0
-126 -207 0
-126 -222 0
-126 -237 0
-126 -240 0
-129 -9 0
-129 -60 0
-129 -78 0
-129 -120 0
-129 -123 0
-129 -126 0
-129 -147 0
-129 -159 0
-129 -195 0
-129 -201 0
-129 -207 0
-129 -210 0
-129 -240 0
-132 -9 0
-132 -12 0
-132 -21 0
-132 -33 0
-132 -45 0
-132 -51 0
-132 -54 0
-132 -60 0
-132 -66 0
-132 -75 0
-132 -78 0
-132 -105 0
-132 -126 0
-135 -6 0
-135 -18 0
-135 -45 0
-135 -69 0
-135 -93 0
-135 -111 0
-135 -126 0
-135 -162 0
-135 -165 0
-135 -174 0
-135 -201 0
-135 -210 0
-135 -216 0
-135 -222 0
-135 -231 0
-138 -9 0
-138 -12 0
-138 -51 0
-138 -54 0
-138 -63 0
-138 -72 0
-138 -78 0
-138 -87 0
-138 -102 0
-138 -108 0
-138 -117 0
-138 -120 0
-138 -123 0
-138 -228 0
-141 -12 0
-141 -21 0
-141 -54 0
-141 -87 0
-141 -90 0
-141 -99 0
-141 -111 0
-141 -120 0
-141 -213 0
-141 -237 0
-141 -240 0
-144 -3 0
-144 -12 0
-144 -42 0
-144 -54 0
-144 -72 0
-144 -93 0
-144 -99 0
-144 -105 0
-144 -108 0
-144 -126 0
-144 -162 0
-144 -171 0
-144 -213 0
-144 -228 0
-147 -12 0
-147 -18 0
-147 -21 0
-147 -27 0
-147 -36 0
-147 -51 0
-147 -66 0
-147 -69 0
-147 -102 0
-147 -105 0
-147 -108 0
-147 -123 0
-147 -129 0
-150 -18 0
-150 -45 0
-150 -54 0
-150 -60 0
-150 -81 0
-150 -90 0
-150 -96 0
-150 -114 0
-150 -126 0
-150 -159 0
-150 -204 0
-150 -213 0
-150 -216 0
-150 -222 0
-150 -234 0
-153 -3 0
-153 -9 0
-153 -72 0
-153 -75 0
-153 -96 0
-153 -108 0
-153 -114 0
-153 -168 0
-153 -171 0
-153 -177 0
-153 -186 0
-153 -192 0
-153 -222 0
-156 -27 0
-156 -48 0
-156 -63 0
-156 -87 0
-156 -159 0
-156 -171 0
-156 -177 0
-156 -180 0
-156 -204 0
-156 -207 0
-156 -213 0
-156 -228 0
-156 -231 0
-159 -27 0
-159 -51 0
-159 -78 0
-159 -81 0
-159 -108 0
-159 -129 0
-159 -150 0
-159 -156 0
-159 -165 0
-159 -168 0
-159 -174 0
-159 -186 0
-159 -198 0
-159 -204 0
-162 -18 0
-162 -39 0
-162 -57 0
-162 -81 0
-162 -84 0
-162 -114 0
-162 -120 0
-162 -135 0
-162 -144 0
-162 -174 0
-162 -204 0
-162 -213 0
-162 -216 0
-162 -225 0
-165 -12 0
-165 -30 0
-165 -51 0
-165 -54 0
-165 -57 0
-165 -66 0
-165 -72 0
-165 -81 0
-165 -99 0
-165 -102 0
-165 -135 0
-165 -159 0
-165 -210 0
-165 -225 0
-168 -12 0
-168 -18 0
-168 -66 0
-168 -75 0
-168 -84 0
-168 -96 0
-168 -117 0
-168 -153 0
-168 -159 0
-168 -192 0
-168 -198 0
-168 -201 0
-168 -204 0
-171 -24 0
-171 -60 0
-171 -78 0
-171 -81 0
-171 -144 0
-171 -153 0
-171 -156 0
-171 -177 0
-171 -186 0
-171 -192 0
-171 -198 0
-171 -207 0
-171 -222 0
-171 -240 0
-174 -15 0
-174 -21 0
-174 -27 0
-174 -36 0
-174 -48 0
-174 -69 0
-174 -78 0
-174 -84 0
-174 -90 0
-174 -102 0
-174 -135 0
-174 -159 0
-174 -162 0
-174 -195 0
-174 -216 0
-177 -21 0
-177 -36 0
-177 -48 0
-177 -57 0
-177 -60 0
-177 -81 0
-177 -84 0
-177 -93 0
-177 -117 0
-177 -153 0
-177 -156 0
-177 -171 0
-177 -186 0
-177 -195 0
-177 -204 0
-180 -54 0
-180 -57 0
-180 -78 0
-180 -84 0
-180 -93 0
-180 -99 0
-180 -102 0
-180 -105 0
-180 -111 0
-180 -126 0
-180 -156 0
-180 -186 0
-180 -216 0
-180 -222 0
-183 -51 0
-183 -93 0
-183 -123 0
-183 -186 0
-183 -189 0
-183 -192 0
-183 -204 0
-183 -210 0
-183 -219 0
-183 -225 0
-183 -231 0
-186 -6 0
-186 -51 0
-186 -78 0
-186 -102 0
-186 -108 0
-186 -117 0
-186 -126 0
-186 -153 0
-186 -159 0
-186 -171 0
-186 -177 0
-186 -180 0
-186 -183 0
-186 -204 0
-189 -45 0
-189 -57 0
-189 -63 0
-189 -66 0
-189 -78 0
-189 -84 0
-189 -90 0
-189 -96 0
-189 -114 0
-189 -183 0
-189 -192 0
-189 -195 0
-189 -204 0
-192 -3 0
-192 -42 0
-192 -60 0
-192 -66 0
-192 -75 0
-192 -153 0
-192 -168 0
-192 -171 0
-192 -183 0
-192 -189 0
-192 -225 0
-192 -240 0
-195 -6 0
-195 -21 0
-195 -39 0
-195 -54 0
-195 -81 0
-195 -93 0
-195 -105 0
-195 -129 0
-195 -174 0
-195 -177 0
-195 -189 0
-195 -219 0
-195 -222 0
-198 -24 0
-198 -27 0
-198 -39 0
-198 -45 0
-198 -48 0
-198 -72 0
-198 -78 0
-198 -102 0
-198 -159 0
-198 -168 0
-198 -171 0
-198 -219 0
-198 -231 0
-198 -240 0
-201 -9 0
-201 -24 0
-201 -33 0
-201 -45 0
-201 -48 0
-201 -51 0
-201 -57 0
-201 -60 0
-201 -72 0
-201 -96 0
-201 -111 0
-201 -129 0
-201 -135 0
-201 -168 0
-204 -15 0
-204 -54 0
-204 -60 0
-204 -72 0
-204 -102 0
-204 -150 0
-204 -156 0
-204 -159 0
-204 -162 0
-204 -168 0
-204 -177 0
-204 -183 0
-204 -186 0
-204 -189 0
-207 -27 0
-207 -30 0
-207 -48 0
-207 -54 0
-207 -75 0
-207 -84 0
-207 -90 0
-207 -111 0
-207 -117 0
-207 -126 0
-207 -129 0
-207 -156 0
-207 -171 0
-210 -6 0
-210 -9 0
-210 -33 0
-210 -45 0
-210 -60 0
-210 -63 0
-210 -66 0
-210 -102 0
-210 -129 0
-210 -135 0
-210 -165 0
-210 -183 0
-210 -225 0
-213 -3 0
-213 -12 0
-213 -45 0
-213 -78 0
-213 -84 0
-213 -111 0
-213 -141 0
-213 -144 0
-213 -150 0
-213 -156 0
-213 -162 0
-216 -3 0
-216 -12 0
-216 -24 0
-216 -45 0
-216 -48 0
-216 -54 0
-216 -63 0
-216 -81 0
-216 -84 0
-216 -90 0
-216 -135 0
-216 -150 0
-216 -162 0
-216 -174 0
-216 -180 0
-219 -27 0
-219 -51 0
-219 -63 0
-219 -102 0
-219 -111 0
-219 -183 0
-219 -195 0
-219 -198 0
-219 -222 0
-219 -225 0
-219 -231 0
-219 -240 0
-222 -6 0
-222 -24 0
-222 -39 0
-222 -99 0
-222 -126 0
-222 -135 0
-222 -150 0
-222 -153 0
-222 -171 0
-222 -180 0
-222 -195 0
-222 -219 0
-222 -231 0
-225 -3 0
-225 -18 0
-225 -36 0
-225 -39 0
-225 -48 0
-225 -162 0
-225 -165 0
-225 -183 0
-225 -192 0
-225 -210 0
-225 -219 0
-228 -9 0
-228 -33 0
-228 -39 0
-228 -42 0
-228 -51 0
-228 -69 0
-228 -75 0
-228 -78 0
-228 -102 0
-228 -105 0
-228 -108 0
-228 -117 0
-228 -138 0
-228 -144 0
-228 -156 0
-231 -9 0
-231 -57 0
-231 -69 0
-231 -93 0
-231 -135 0
-231 -156 0
-231 -183 0
-231 -198 0
-231 -219 0
-231 -222 0
-234 -3 0
-234 -6 0
-234 -18 0
-234 -21 0
-234 -27 0
-234 -33 0
-234 -36 0
-234 -42 0
-234 -45 0
-234 -51 0
-234 -69 0
-234 -84 0
-234 -111 0
-234 -150 0
-237 -18 0
-237 -39 0
-237 -42 0
-237 -45 0
-237 -57 0
-237 -75 0
-237 -78 0
-237 -81 0
-237 -87 0
-237 -105 0
-237 -108 0
-237 -126 0
-237 -141 0
-240 -18 0
-240 -21 0
-240 -24 0
-240 -72 0
-240 -102 0
-240 -126 0
-240 -129 0
-240 -141 0
-240 -171 0
-240 -192 0
-240 -198 0
-240 -219 0
